c 32_4_checker.cnf
c
c field = 32
c formula set type = 4_checker
c
p cnf 5 22
60 
64 
66 
68 
-70 
61 
65 
67 
69 
-71 
64 
66 
68 
70 
-60 
65 
67 
69 
71 
-61 
64 
66 
68 
70 
-72 
65 
67 
69 
71 
-73 
2 
32 
92 
122 
-152 
3 
33 
93 
123 
-153 
32 
92 
122 
152 
-2 
33 
93 
123 
153 
-3 
32 
92 
122 
152 
-182 
33 
93 
123 
153 
-183 
92 
122 
152 
182 
-32 
93 
123 
153 
183 
-33 
92 
122 
152 
182 
-212 
93 
123 
153 
183 
-213 
30 
94 
126 
158 
-190 
31 
95 
127 
159 
-191 
94 
126 
158 
190 
-30 
95 
127 
159 
191 
-31 
94 
126 
158 
190 
-222 
95 
127 
159 
191 
-223 
